letting initialStacks = [19, 10, 15, 3, 34, 27, 24, 8, 21, 40, 45, 31, 28, 14, 49, 25, 12, 2, 43, 29, 23, 20, 30, 7, 47, 44, 36, 33, 22, 42, 35, 51, 37, 18, 16, 50, 38, 26, 11, 5, 4, 6, 48, 32, 1, 17, 41, 39, 13, 9, 46]
